
  22    4
  10   10   10   10

   0   0   0   0   0   3 2 3 5 
   1  10  10  10  10   3 10 8 6 
   7  10  10  10  10   2 8 4 
   7  10  10  10  10   4 15 13 10 9 
   3  10  10  10  10   3 15 9 8 
  10  10  10  10  10   1 7 
  10  10  10  10  10   3 15 13 11 
   2  10  10  10  10   2 13 11 
   9  10  10  10  10   2 16 11 
   1  10  10  10  10   2 16 11 
   8  10  10  10  10   1 12 
   4  10  10  10  10   3 20 19 14 
   2  10  10  10  10   3 19 17 16 
   1  10  10  10  10   3 21 18 17 
   7  10  10  10  10   3 21 19 17 
   5  10  10  10  10   2 20 18 
   7  10  10  10  10   1 22
   9  10  10  10  10   1 22
   7  10  10  10  10   1 22
   5  10  10  10  10   1 22
   1  10  10  10  10   1 22
   0   0   0   0   0   0 
